(set-info :origin "Horn problem converted to SMT-LIB2 using Eldarica (https://github.com/uuverifiers/eldarica)")
(set-logic HORN)
(declare-fun INV_MAIN_42 (Int Int Int Int Int Int Int Int Int Int Int) Bool)
(assert (forall ((A Int) (B Int) (C Int) (D Int) (E Int) (F Int) (G Int) (H Int) (I Int) (J Int) (K Int))(=> (and (and (and (and (and (and (and (and (not (and (= G E) (= F 1))) (not (<= D (- 1)))) (= A 1)) (= B 1)) (= C 2)) (= H 2)) (= I D)) (= J G)) (= K 1)) (INV_MAIN_42 A B C D E F G H I J K))))
(assert (forall ((A Int) (B Int) (C Int) (D Int) (E Int) (F Int) (G Int) (H Int) (I Int) (J Int) (K Int))(=> (and (and (and (and (and (and (and (and (not (and (= J E) (not (= K F)))) (not (and (= J G) (not (= K 1))))) (not (and (= (- J G) 4) (not (= K 1))))) (not (<= D (- 1)))) (= A 1)) (= B 1)) (= C 2)) (= H 2)) (= I D)) (INV_MAIN_42 A B C D E F G H I J K))))
(assert (forall ((A Int) (B Int) (C Int) (D Int) (E Int) (F Int) (G Int) (H Int) (I Int) (J Int) (K Int))(=> (and (and (and (and (and (and (and (not (<= D (- 1))) (= A 1)) (= B 1)) (= C 2)) (= H 2)) (= I D)) (= (- J G) 4)) (= K 1)) (INV_MAIN_42 A B C D E F G H I J K))))
(assert (forall ((A Int) (B Int) (C Int) (D Int) (E Int) (F Int) (G Int) (H Int) (I Int) (J Int) (K Int) (L Int) (M Int) (N Int) (O Int) (P Int) (Q Int) (R Int) (S Int) (T Int) (U Int) (V Int)) (not (and (and (and (and (and (and (and (and (and (and (and (and (and (and (and (INV_MAIN_42 A B C D E F G H I J K) (INV_MAIN_42 L M N O P Q R S T U V)) (not (and (= (+ U (- (* (- 4) S) R)) (- 4)) (not (= K V))))) (not (>= (- O N) 1))) (not (>= (- T S) 1))) (not (= K M))) (= A L)) (= B M)) (= C N)) (= D O)) (= E P)) (= F Q)) (= G R)) (= H S)) (= I T)) (= (+ J (- (* (- 4) S) R)) (- 4))))))
(assert (forall ((A Int) (B Int) (C Int) (D Int) (E Int) (F Int) (G Int) (H Int) (I Int) (J Int) (K Int) (L Int) (M Int) (N Int) (O Int) (P Int) (Q Int) (R Int) (S Int) (T Int) (U Int) (V Int) (W Int) (X Int) (Y Int) (Z Int) (A1 Int) (B1 Int) (C1 Int) (D1 Int) (E1 Int) (F1 Int) (G1 Int))(=> (and (and (and (and (and (and (and (and (and (and (and (and (and (and (and (and (and (and (and (and (and (and (and (and (and (INV_MAIN_42 L M N O P Q R S T U V) (INV_MAIN_42 W X Y Z A1 B1 C1 D1 E1 F1 G1)) (not (>= (- C D) 1))) (not (>= (- H I) 1))) (= (+ J (- (* (- 4) H) G)) (- 4))) (= (+ W (- A B)) 0)) (= X A)) (= (- Y C) (- 1))) (= Z D)) (= A1 E)) (= B1 F)) (= C1 G)) (= (- D1 H) (- 1))) (= E1 I)) (= (+ F1 (- (* (- 4) H) G)) (- 12))) (= (+ L (- A B)) 0)) (= M A)) (= (- N C) (- 1))) (= O D)) (= P E)) (= Q F)) (= R G)) (= (- S H) (- 1))) (= T I)) (= (+ U (- (* (- 4) H) G)) (- 8))) (= (+ V (- G1 K)) 0)) (INV_MAIN_42 A B C D E F G H I J K))))
(assert (forall ((A Int) (B Int) (C Int) (D Int) (E Int) (F Int) (G Int) (H Int) (I Int) (J Int) (K Int) (L Int) (M Int) (N Int) (O Int) (P Int) (Q Int) (R Int) (S Int) (T Int) (U Int) (V Int) (W Int) (X Int) (Y Int) (Z Int) (A1 Int) (B1 Int) (C1 Int) (D1 Int) (E1 Int) (F1 Int) (G1 Int) (H1 Int) (I1 Int) (J1 Int) (K1 Int) (L1 Int) (M1 Int) (N1 Int) (O1 Int) (P1 Int) (Q1 Int) (R1 Int))(=> (and (and (and (and (and (and (and (and (and (and (and (and (and (and (and (and (and (and (and (and (and (and (and (and (and (and (and (and (and (and (and (and (and (and (and (and (and (and (INV_MAIN_42 L M N O P Q R S T U V) (INV_MAIN_42 W X Y Z A1 B1 C1 D1 E1 F1 G1)) (INV_MAIN_42 H1 I1 J1 K1 L1 M1 N1 O1 P1 Q1 R1)) (not (and (= (+ J (- (* (- 4) H) G)) (- 4)) (not (= (+ V (- G1 K)) 0))))) (not (and (= (+ J (- (* (- 4) H) G)) (- 8)) (not (= V K))))) (not (and (= (+ J (- (* (- 4) H) G)) (- 12)) (not (= G1 K))))) (not (>= (- C D) 1))) (not (>= (- H I) 1))) (= (+ H1 (- A B)) 0)) (= I1 A)) (= (- J1 C) (- 1))) (= K1 D)) (= L1 E)) (= M1 F)) (= N1 G)) (= (- O1 H) (- 1))) (= P1 I)) (= Q1 J)) (= R1 K)) (= (+ W (- A B)) 0)) (= X A)) (= (- Y C) (- 1))) (= Z D)) (= A1 E)) (= B1 F)) (= C1 G)) (= (- D1 H) (- 1))) (= E1 I)) (= (+ F1 (- (* (- 4) H) G)) (- 12))) (= (+ L (- A B)) 0)) (= M A)) (= (- N C) (- 1))) (= O D)) (= P E)) (= Q F)) (= R G)) (= (- S H) (- 1))) (= T I)) (= (+ U (- (* (- 4) H) G)) (- 8))) (INV_MAIN_42 A B C D E F G H I J K))))
(assert (forall ((A Int) (B Int) (C Int) (D Int) (E Int) (F Int) (G Int) (H Int) (I Int) (J Int) (K Int) (L Int) (M Int) (N Int) (O Int) (P Int) (Q Int) (R Int) (S Int) (T Int) (U Int) (V Int))(=> (and (and (and (and (and (and (and (and (and (and (and (and (and (INV_MAIN_42 L M N O P Q R S T U V) (not (>= (- C D) 1))) (not (>= (- I H) 1))) (= (+ L (- A B)) 0)) (= M A)) (= (- N C) (- 1))) (= O D)) (= P E)) (= Q F)) (= R G)) (= S H)) (= T I)) (= U J)) (= V K)) (INV_MAIN_42 A B C D E F G H I J K))))
(assert (forall ((A Int) (B Int) (C Int) (D Int) (E Int) (F Int) (G Int) (H Int) (I Int) (J Int) (K Int) (L Int) (M Int) (N Int) (O Int) (P Int) (Q Int) (R Int) (S Int) (T Int) (U Int) (V Int) (W Int) (X Int) (Y Int) (Z Int) (A1 Int) (B1 Int) (C1 Int) (D1 Int) (E1 Int) (F1 Int) (G1 Int) (H1 Int) (I1 Int) (J1 Int) (K1 Int) (L1 Int) (M1 Int) (N1 Int) (O1 Int) (P1 Int) (Q1 Int) (R1 Int))(=> (and (and (and (and (and (and (and (and (and (and (and (and (and (and (and (and (and (and (and (and (and (and (and (and (and (and (and (and (and (and (and (and (and (and (and (and (and (and (INV_MAIN_42 L M N O P Q R S T U V) (INV_MAIN_42 W X Y Z A1 B1 C1 D1 E1 F1 G1)) (INV_MAIN_42 H1 I1 J1 K1 L1 M1 N1 O1 P1 Q1 R1)) (not (and (= (+ J (- (* (- 4) H) G)) (- 4)) (not (= (+ V (- G1 K)) 0))))) (not (and (= (+ J (- (* (- 4) H) G)) (- 8)) (not (= V K))))) (not (and (= (+ J (- (* (- 4) H) G)) (- 12)) (not (= G1 K))))) (not (>= (- D C) 1))) (not (>= (- H I) 1))) (= H1 A)) (= I1 B)) (= J1 C)) (= K1 D)) (= L1 E)) (= M1 F)) (= N1 G)) (= (- O1 H) (- 1))) (= P1 I)) (= Q1 J)) (= R1 K)) (= W A)) (= X B)) (= Y C)) (= Z D)) (= A1 E)) (= B1 F)) (= C1 G)) (= (- D1 H) (- 1))) (= E1 I)) (= (+ F1 (- (* (- 4) H) G)) (- 12))) (= L A)) (= M B)) (= N C)) (= O D)) (= P E)) (= Q F)) (= R G)) (= (- S H) (- 1))) (= T I)) (= (+ U (- (* (- 4) H) G)) (- 8))) (INV_MAIN_42 A B C D E F G H I J K))))
(assert (forall ((A Int) (B Int) (C Int) (D Int) (E Int) (F Int) (G Int) (H Int) (I Int) (J Int) (K Int) (L Int) (M Int) (N Int) (O Int) (P Int) (Q Int) (R Int) (S Int) (T Int) (U Int) (V Int) (W Int) (X Int) (Y Int) (Z Int) (A1 Int) (B1 Int) (C1 Int) (D1 Int) (E1 Int) (F1 Int) (G1 Int))(=> (and (and (and (and (and (and (and (and (and (and (and (and (and (and (and (and (and (and (and (and (and (and (and (and (and (INV_MAIN_42 L M N O P Q R S T U V) (INV_MAIN_42 W X Y Z A1 B1 C1 D1 E1 F1 G1)) (not (>= (- D C) 1))) (not (>= (- H I) 1))) (= (+ J (- (* (- 4) H) G)) (- 4))) (= W A)) (= X B)) (= Y C)) (= Z D)) (= A1 E)) (= B1 F)) (= C1 G)) (= (- D1 H) (- 1))) (= E1 I)) (= (+ F1 (- (* (- 4) H) G)) (- 12))) (= L A)) (= M B)) (= N C)) (= O D)) (= P E)) (= Q F)) (= R G)) (= (- S H) (- 1))) (= T I)) (= (+ U (- (* (- 4) H) G)) (- 8))) (= (+ V (- G1 K)) 0)) (INV_MAIN_42 A B C D E F G H I J K))))
(check-sat)
